NAME : a280
COMMENT : Tour length 3216
TYPE : TOUR
DIMENSION : 280
TOUR_SECTION
1
2
280
3
279
278
277
276
275
274
273
272
271
16
17
18
133
132
19
20
21
130
131
129
128
127
126
125
30
31
32
33
34
35
36
37
38
39
40
41
42
43
60
61
118
117
115
114
113
87
84
85
65
64
66
67
70
71
72
73
74
75
76
77
78
95
94
93
98
97
96
99
100
101
102
103
104
105
106
107
173
174
161
162
163
164
165
166
167
168
169
170
171
172
108
110
111
112
88
83
82
81
80
79
89
109
90
91
92
86
116
62
63
59
44
45
56
57
58
68
69
55
54
53
52
51
50
49
48
47
46
124
123
122
121
120
119
157
158
159
160
175
182
183
184
185
187
186
190
189
188
191
192
194
195
196
197
198
201
200
144
143
142
147
146
145
199
202
203
204
205
206
207
210
211
212
213
214
215
216
217
218
219
220
221
222
223
224
225
226
227
228
229
230
251
250
247
244
241
240
239
238
231
246
245
243
242
248
249
256
255
252
209
208
253
254
257
258
259
260
261
262
263
264
265
266
138
137
267
268
136
135
134
270
269
140
139
148
141
149
150
178
151
152
156
153
155
154
29
28
27
26
22
25
23
24
14
13
12
11
10
8
7
9
6
5
4
15
177
176
181
180
179
193
234
233
232
237
236
235
1
-1
EOF